Version identifier: 12.10.0.0 | 2019-11-26 | 843d4de
CPXPARAM_LPMethod                                4
CPXPARAM_Threads                                 1
CPXPARAM_SolutionType                            2
CPXPARAM_TimeLimit                               10000
Tried aggregator 1 time.
LP Presolve eliminated 668 rows and 37668 columns.
Aggregator did 40552 substitutions.
Reduced LP has 54571 rows, 192665 columns, and 599470 nonzeros.
Presolve time = 0.93 sec. (252.17 ticks)
Parallel mode: none, using 1 thread for barrier
Number of nonzeros in lower triangle of A*A' = 704755
Using Nested Dissection ordering
Total time for automatic ordering = 9.45 sec. (5463.61 ticks)
Summary statistics for Cholesky factor:
  Rows in Factor            = 54571
  Integer space required    = 750557
  Total non-zeros in factor = 35173818
  Total FP ops to factor    = 48589935484
 Itn      Primal Obj        Dual Obj  Prim Inf Upper Inf  Dual Inf Inf Ratio
   0  -5.6600182e+04  -2.2749794e+05  4.61e+06  3.65e+06  6.72e+03  1.00e+00
   1  -1.4473018e+04  -2.2504722e+04  1.59e+06  1.26e+06  8.64e+02  1.25e+00
   2  -2.1764232e+03  -2.8071297e+03  1.64e+05  1.29e+05  8.11e+01  1.68e+00
   3  -7.7908013e+02  -8.7738877e+02  3.28e+04  2.60e+04  1.53e+01  2.11e+01
   4  -5.3806682e+02  -5.9254592e+02  1.38e+04  1.09e+04  6.83e+00  7.45e+01
   5  -4.4276448e+02  -4.3521459e+02  6.53e+03  5.17e+03  2.26e+00  5.15e+02
   6  -4.2153478e+02  -4.1612113e+02  5.06e+03  4.01e+03  1.77e+00  6.96e+02
   7  -4.0673739e+02  -3.9969424e+02  4.15e+03  3.28e+03  1.39e+00  9.22e+02
   8  -3.9797631e+02  -3.9110403e+02  3.66e+03  2.89e+03  1.21e+00  1.06e+03
   9  -3.8782856e+02  -3.8428829e+02  3.14e+03  2.48e+03  1.08e+00  1.10e+03
  10  -3.8234457e+02  -3.8070963e+02  2.90e+03  2.29e+03  1.03e+00  1.05e+03
  11  -3.7638101e+02  -3.7440643e+02  2.70e+03  2.14e+03  9.49e-01  1.14e+03
  12  -3.7162969e+02  -3.6693831e+02  2.54e+03  2.01e+03  8.60e-01  1.30e+03
  13  -3.6573128e+02  -3.6396018e+02  2.36e+03  1.87e+03  8.27e-01  1.29e+03
  14  -3.5676551e+02  -3.5293389e+02  2.08e+03  1.65e+03  7.04e-01  1.54e+03
  15  -3.5267917e+02  -3.4991419e+02  1.97e+03  1.56e+03  6.74e-01  1.58e+03
  16  -3.4397574e+02  -3.4203303e+02  1.75e+03  1.39e+03  6.04e-01  1.58e+03
  17  -3.3941013e+02  -3.3793630e+02  1.66e+03  1.31e+03  5.75e-01  1.66e+03
  18  -3.3041006e+02  -3.3016988e+02  1.50e+03  1.18e+03  5.26e-01  1.68e+03
  19  -3.2168659e+02  -3.1788443e+02  1.35e+03  1.07e+03  4.54e-01  2.05e+03
  20  -3.1570274e+02  -3.0958079e+02  1.26e+03  9.93e+02  4.07e-01  2.33e+03
  21  -3.0659462e+02  -2.9586605e+02  1.12e+03  8.84e+02  3.34e-01  2.95e+03
  22  -2.9536427e+02  -2.8757374e+02  9.58e+02  7.58e+02  2.93e-01  3.17e+03
  23  -2.8603908e+02  -2.7735846e+02  8.26e+02  6.54e+02  2.43e-01  3.86e+03
  24  -2.7541399e+02  -2.7400690e+02  6.78e+02  5.36e+02  2.27e-01  3.97e+03
  25  -2.6376718e+02  -2.6180162e+02  5.33e+02  4.22e+02  1.75e-01  5.13e+03
  26  -2.5333088e+02  -2.5051674e+02  4.06e+02  3.21e+02  1.28e-01  6.81e+03
  27  -2.4643236e+02  -2.4509248e+02  3.32e+02  2.62e+02  1.08e-01  7.58e+03
  28  -2.4591091e+02  -2.4347100e+02  3.26e+02  2.58e+02  1.02e-01  8.01e+03
  29  -2.3968205e+02  -2.3437417e+02  2.65e+02  2.10e+02  7.19e-02  1.08e+04
  30  -2.3539895e+02  -2.2832018e+02  2.24e+02  1.78e+02  5.28e-02  1.41e+04
  31  -2.2437380e+02  -2.2237758e+02  1.23e+02  9.73e+01  3.46e-02  1.82e+04
  32  -2.2181699e+02  -2.1994469e+02  1.04e+02  8.22e+01  2.88e-02  2.08e+04
  33  -2.1944843e+02  -2.1797410e+02  8.57e+01  6.78e+01  2.39e-02  2.39e+04
  34  -2.1736973e+02  -2.1587826e+02  7.01e+01  5.54e+01  1.89e-02  2.91e+04
  35  -2.1478071e+02  -2.1422076e+02  5.16e+01  4.08e+01  1.51e-02  3.43e+04
  36  -2.1160872e+02  -2.1293459e+02  3.06e+01  2.42e+01  1.24e-02  3.81e+04
  37  -2.1080068e+02  -2.1172650e+02  2.57e+01  2.03e+01  1.01e-02  4.65e+04
  38  -2.1039594e+02  -2.1118315e+02  2.29e+01  1.81e+01  8.90e-03  5.42e+04
  39  -2.0917178e+02  -2.1017608e+02  1.54e+01  1.22e+01  6.92e-03  6.65e+04
  40  -2.0847698e+02  -2.0925138e+02  1.14e+01  8.98e+00  5.17e-03  8.72e+04
  41  -2.0774783e+02  -2.0845333e+02  6.91e+00  5.46e+00  3.60e-03  1.22e+05
  42  -2.0741101e+02  -2.0814885e+02  4.88e+00  3.86e+00  3.01e-03  1.44e+05
  43  -2.0708302e+02  -2.0777957e+02  2.93e+00  2.32e+00  2.30e-03  1.88e+05
  44  -2.0705685e+02  -2.0741106e+02  2.78e+00  2.20e+00  1.59e-03  2.78e+05
  45  -2.0687583e+02  -2.0694445e+02  1.64e+00  1.30e+00  6.59e-04  6.69e+05
  46  -2.0680670e+02  -2.0691210e+02  1.20e+00  9.48e-01  5.93e-04  7.36e+05
  47  -2.0674892e+02  -2.0675637e+02  8.37e-01  6.62e-01  2.82e-04  1.52e+06
  48  -2.0669369e+02  -2.0667634e+02  4.82e-01  3.81e-01  1.18e-04  3.31e+06
  49  -2.0664536e+02  -2.0663174e+02  1.82e-01  1.44e-01  3.06e-05  1.00e+07
  50  -2.0661898e+02  -2.0661554e+02  4.01e-02  3.17e-02  6.12e-06  4.04e+07
  51  -2.0661046e+02  -2.0661039e+02  1.19e-03  9.43e-04  2.18e-07  1.12e+09
  52  -2.0661025e+02  -2.0661025e+02  2.20e-04  1.73e-04  5.87e-08  4.14e+09
  53  -2.0661025e+02  -2.0661022e+02  2.19e-04  1.72e-04  2.83e-08  8.94e+09
  54  -2.0661022e+02  -2.0661021e+02  9.80e-05  7.36e-05  6.22e-09  3.48e+10
  55  -2.0661022e+02  -2.0661020e+02  9.41e-05  7.06e-05  1.92e-09  1.02e+11
  56  -2.0661020e+02  -2.0661020e+02  2.22e-06  1.21e-06  1.74e-10  3.70e+12
Barrier time = 208.83 sec. (490981.08 ticks)

Total time on 1 threads = 208.83 sec. (490981.08 ticks)
Solver name: CPLEX
Solve time: 208.851742932
Termination status: OPTIMAL
Result count: 1
Primal status: FEASIBLE_POINT
Dual status: FEASIBLE_POINT
